language Essence 1.3

letting bot_end be
        [11763, 1473, 8065, 718, 367, 10851, 321, 933, 7702, 3856, 200, 3660, 3157, 1851, 10304, 9608, 2561, 1763, 2034,
         3129, 4073, 10852, 1616, 10709, 735, 9755, 5845, 9165, 7180, 1515, 9741, 5880, 5878, 2365, 7355, 1115, 7523,
         8847, 347, 556, 2755, 7705, 9247, 1105;
             int(1..44)]
letting bot_start be
        [3564, 6917, 2059, 11306, 6708, 8338, 11455, 7858, 8298, 1522, 5313, 9990, 8058, 10224, 3420, 494, 8308, 8840,
         9162, 9681, 9915, 426, 4979, 5675, 6707, 4181, 8856, 5555, 1260, 11772, 1520, 4795, 793, 9755, 440, 4959, 5008,
         2184, 5554, 10029, 10391, 3869, 10661, 11336;
             int(1..44)]
letting buffer_col be 2
letting buffer_row be 2
letting corridor_size be 4
letting n_shelves_col be 30
letting n_shelves_row be 12
letting shelf_col_size be 2
letting shelf_row_size be 1
